NAME : prob20c.6200.tour
COMMENT : Cost = 0_6200
COMMENT : Found by LKH [Keld Helsgaun] Sun Sep 17 01:05:34 2017
TYPE : TOUR
DIMENSION : 41
TOUR_SECTION
1
34
28
36
29
39
24
38
9
33
40
37
35
23
4
27
32
7
12
16
31
25
19
5
18
11
14
30
13
26
41
15
3
8
22
2
10
21
20
17
6
-1
EOF
